(set-logic HORN)
(declare-fun inv (Int Int) Bool)
(assert (forall ((z0 Int) (x0 Int)) (=> (and (= x0 1) (= z0 (- 1))) (inv x0 z0))))
(assert (forall ((z1 Int) (x1 Int) (z0 Int) (x0 Int))
  (let ((a!1 (and (inv x0 z0)
                  (= x1 (- (+ x0 x0)))
                  (= z1 (ite (< x0 0) (* 4 z0) z0)))))
    (=> a!1 (inv x1 z1)))))
(assert (forall ((z0 Int) (x0 Int))
  (let ((a!1 (and (inv x0 z0) (> x0 5143523) (= 0 (+ x0 z0)))))
    (=> a!1 false))))
(check-sat)
